(set-info :smt-lib-version 2.6)
(set-logic QF_NIA)
(set-info :source |
Generated by: Cristina Borralleras, Daniel Larraz, Albert Oliveras, Enric Rodriguez-Carbonell, Albert Rubio
Generated on: 2017-04-27
Generator: VeryMax
Application: Termination proving
Target solver: barcelogic
|)
(set-info :license "https://creativecommons.org/licenses/by/4.0/")
(set-info :category "industrial")
(set-info :status unsat)
(declare-fun Nl6arg11 () Int)
(declare-fun Nl6arg21 () Int)
(declare-fun Nl6arg31 () Int)
(declare-fun Nl6arg41 () Int)
(declare-fun Nl6arg51 () Int)
(declare-fun Nl6arg61 () Int)
(declare-fun lam0n0 () Int)
(declare-fun lam0n1 () Int)
(declare-fun lam0n2 () Int)
(declare-fun lam0n3 () Int)
(declare-fun lam0n4 () Int)
(declare-fun lam0n5 () Int)
(declare-fun lam0n6 () Int)
(declare-fun lam0n7 () Int)
(declare-fun lam0n8 () Int)
(declare-fun lam0n9 () Int)
(declare-fun Nl6CT1 () Int)
(declare-fun lam1n0 () Int)
(declare-fun lam1n1 () Int)
(declare-fun lam1n2 () Int)
(declare-fun lam1n3 () Int)
(declare-fun lam1n4 () Int)
(declare-fun lam1n5 () Int)
(declare-fun lam1n6 () Int)
(declare-fun lam1n7 () Int)
(declare-fun lam1n8 () Int)
(declare-fun lam1n9 () Int)
(declare-fun lam2n0 () Int)
(declare-fun lam2n1 () Int)
(declare-fun lam2n2 () Int)
(declare-fun lam2n3 () Int)
(declare-fun lam2n4 () Int)
(declare-fun lam2n5 () Int)
(declare-fun lam2n6 () Int)
(declare-fun lam3n0 () Int)
(declare-fun lam3n1 () Int)
(declare-fun lam3n2 () Int)
(declare-fun lam3n3 () Int)
(declare-fun lam3n4 () Int)
(declare-fun lam3n5 () Int)
(declare-fun lam3n6 () Int)
(declare-fun lam4n0 () Int)
(declare-fun lam4n1 () Int)
(declare-fun lam4n2 () Int)
(declare-fun lam4n3 () Int)
(declare-fun lam4n4 () Int)
(declare-fun lam4n5 () Int)
(declare-fun lam4n6 () Int)
(declare-fun lam5n0 () Int)
(declare-fun lam5n1 () Int)
(declare-fun lam5n2 () Int)
(declare-fun lam5n3 () Int)
(declare-fun lam5n4 () Int)
(declare-fun lam5n5 () Int)
(declare-fun lam5n6 () Int)
(declare-fun lam6n0 () Int)
(declare-fun lam6n1 () Int)
(declare-fun lam6n2 () Int)
(declare-fun lam6n3 () Int)
(assert ( and ( <= ( - 2 ) Nl6arg11 ) ( <= Nl6arg11 2 ) ( <= ( - 2 ) Nl6arg21 ) ( <= Nl6arg21 2 ) ( <= ( - 2 ) Nl6arg31 ) ( <= Nl6arg31 2 ) ( <= ( - 2 ) Nl6arg41 ) ( <= Nl6arg41 2 ) ( <= ( - 2 ) Nl6arg51 ) ( <= Nl6arg51 2 ) ( <= ( - 2 ) Nl6arg61 ) ( <= Nl6arg61 2 ) ))
(assert ( or ( and ( >= lam0n0 0 ) ( >= lam0n1 0 ) ( >= lam0n2 0 ) ( >= lam0n3 0 ) ( >= lam0n4 0 ) ( >= lam0n5 0 ) ( >= lam0n6 0 ) ( >= lam0n7 0 ) ( >= lam0n8 0 ) ( >= lam0n9 0 ) ( > ( + ( * 1 lam0n0 ) ( * 1 lam0n1 ) ( * 1 lam0n2 ) ( * 1 lam0n3 ) ( * 1 lam0n4 ) ( * 2 lam0n7 ) ( * 2 lam0n8 ) ( * Nl6CT1 lam0n9 ) ( - 1 ) ) 0 ) ( = ( + ( * ( - 1 ) lam0n0 ) ( * ( - 1 ) lam0n1 ) ( * Nl6arg11 lam0n9 ) ) 0 ) ( = ( + ( * 1 lam0n1 ) ( * ( - 1 ) lam0n7 ) ( * Nl6arg21 lam0n9 ) ) 0 ) ( = ( + ( * 1 lam0n2 ) ( * Nl6arg31 lam0n9 ) ) 0 ) ( = ( + ( * ( - 1 ) lam0n2 ) ( * ( - 1 ) lam0n3 ) ( * Nl6arg41 lam0n9 ) ) 0 ) ( = ( + ( * ( - 1 ) lam0n4 ) ( * ( - 1 ) lam0n5 ) ( * Nl6arg51 lam0n9 ) ) 0 ) ( = ( + ( * 1 lam0n4 ) ( * ( - 1 ) lam0n8 ) ( * Nl6arg61 lam0n9 ) ) 0 ) ( = ( * ( - 1 ) lam0n6 ) 0 ) ) ( and ( >= lam1n0 0 ) ( >= lam1n1 0 ) ( >= lam1n2 0 ) ( >= lam1n3 0 ) ( >= lam1n4 0 ) ( >= lam1n5 0 ) ( >= lam1n6 0 ) ( >= lam1n7 0 ) ( >= lam1n8 0 ) ( >= lam1n9 0 ) ( > ( + ( * 1 lam1n0 ) ( * 1 lam1n1 ) ( * 1 lam1n2 ) ( * 1 lam1n3 ) ( * 1 lam1n4 ) ( * 2 lam1n7 ) ( * 2 lam1n8 ) ( * Nl6CT1 lam1n9 ) ( - 1 ( + ( + ( + ( + ( + Nl6CT1 ( * Nl6arg11 ( - 1 ) ) ) ( * Nl6arg21 ( - 2 ) ) ) ( * Nl6arg31 0 ) ) ( * Nl6arg41 0 ) ) ( * Nl6arg61 1 ) ) ) ) 0 ) ( = ( + ( * ( - 1 ) lam1n0 ) ( * ( - 1 ) lam1n1 ) ( * Nl6arg11 lam1n9 ) ) 0 ) ( = ( + ( * 1 lam1n1 ) ( * ( - 1 ) lam1n7 ) ( * Nl6arg21 lam1n9 ) ( - ( + ( + 0 ( * Nl6arg11 1 ) ) ( * Nl6arg21 1 ) ) ) ) 0 ) ( = ( + ( * 1 lam1n2 ) ( * Nl6arg31 lam1n9 ) ) 0 ) ( = ( + ( * ( - 1 ) lam1n2 ) ( * ( - 1 ) lam1n3 ) ( * Nl6arg41 lam1n9 ) ) 0 ) ( = ( + ( * ( - 1 ) lam1n4 ) ( * ( - 1 ) lam1n5 ) ( * Nl6arg51 lam1n9 ) ( - ( + 0 Nl6arg51 ) ) ) 0 ) ( = ( + ( * 1 lam1n4 ) ( * ( - 1 ) lam1n8 ) ( * Nl6arg61 lam1n9 ) ( - ( + 0 ( * Nl6arg61 1 ) ) ) ) 0 ) ( = ( + ( * ( - 1 ) lam1n6 ) ( - ( + 0 ( * Nl6arg41 1 ) ) ) ) 0 ) ) ))
(assert ( or ( and ( >= lam2n0 0 ) ( >= lam2n1 0 ) ( >= lam2n2 0 ) ( >= lam2n3 0 ) ( >= lam2n4 0 ) ( >= lam2n5 0 ) ( >= lam2n6 0 ) ( > ( + ( * 1 lam2n0 ) ( * 1 lam2n1 ) ( * 1 lam2n2 ) ( * 1 lam2n3 ) ( * 2 lam2n5 ) ( * Nl6CT1 lam2n6 ) ( - 1 ) ) 0 ) ( = ( + ( * ( - 1 ) lam2n0 ) ( * ( - 1 ) lam2n1 ) ( * Nl6arg11 lam2n6 ) ) 0 ) ( = ( + ( * 1 lam2n1 ) ( * ( - 1 ) lam2n4 ) ( * Nl6arg21 lam2n6 ) ) 0 ) ( = ( + ( * 1 lam2n2 ) ( * Nl6arg31 lam2n6 ) ) 0 ) ( = ( + ( * ( - 1 ) lam2n2 ) ( * ( - 1 ) lam2n3 ) ( * Nl6arg41 lam2n6 ) ) 0 ) ( = ( * Nl6arg51 lam2n6 ) 0 ) ( = ( + ( * ( - 1 ) lam2n5 ) ( * Nl6arg61 lam2n6 ) ) 0 ) ) ( and ( >= lam3n0 0 ) ( >= lam3n1 0 ) ( >= lam3n2 0 ) ( >= lam3n3 0 ) ( >= lam3n4 0 ) ( >= lam3n5 0 ) ( >= lam3n6 0 ) ( > ( + ( * 1 lam3n0 ) ( * 1 lam3n1 ) ( * 1 lam3n2 ) ( * 1 lam3n3 ) ( * 2 lam3n5 ) ( * Nl6CT1 lam3n6 ) ( - 1 ( + Nl6CT1 ( * Nl6arg31 1 ) ) ) ) 0 ) ( = ( + ( * ( - 1 ) lam3n0 ) ( * ( - 1 ) lam3n1 ) ( * Nl6arg11 lam3n6 ) ( - ( + 0 Nl6arg11 ) ) ) 0 ) ( = ( + ( * 1 lam3n1 ) ( * ( - 1 ) lam3n4 ) ( * Nl6arg21 lam3n6 ) ( - ( + 0 Nl6arg21 ) ) ) 0 ) ( = ( + ( * 1 lam3n2 ) ( * Nl6arg31 lam3n6 ) ( - ( + 0 ( * Nl6arg31 1 ) ) ) ) 0 ) ( = ( + ( * ( - 1 ) lam3n2 ) ( * ( - 1 ) lam3n3 ) ( * Nl6arg41 lam3n6 ) ( - ( + 0 Nl6arg41 ) ) ) 0 ) ( = ( + ( * Nl6arg51 lam3n6 ) ( - ( + 0 Nl6arg51 ) ) ) 0 ) ( = ( + ( * ( - 1 ) lam3n5 ) ( * Nl6arg61 lam3n6 ) ( - ( + 0 Nl6arg61 ) ) ) 0 ) ) ))
(assert ( or ( and ( >= lam4n0 0 ) ( >= lam4n1 0 ) ( >= lam4n2 0 ) ( >= lam4n3 0 ) ( >= lam4n4 0 ) ( >= lam4n5 0 ) ( >= lam4n6 0 ) ( > ( + ( * 1 lam4n0 ) ( * 1 lam4n1 ) ( * 1 lam4n2 ) ( * 1 lam4n3 ) ( * 2 lam4n5 ) ( * Nl6CT1 lam4n6 ) ( - 1 ) ) 0 ) ( = ( + ( * ( - 1 ) lam4n0 ) ( * ( - 1 ) lam4n1 ) ( * Nl6arg11 lam4n6 ) ) 0 ) ( = ( + ( * 1 lam4n1 ) ( * ( - 1 ) lam4n4 ) ( * Nl6arg21 lam4n6 ) ) 0 ) ( = ( + ( * 1 lam4n2 ) ( * Nl6arg31 lam4n6 ) ) 0 ) ( = ( + ( * ( - 1 ) lam4n2 ) ( * ( - 1 ) lam4n3 ) ( * Nl6arg41 lam4n6 ) ) 0 ) ( = ( * Nl6arg51 lam4n6 ) 0 ) ( = ( + ( * ( - 1 ) lam4n5 ) ( * Nl6arg61 lam4n6 ) ) 0 ) ) ( and ( >= lam5n0 0 ) ( >= lam5n1 0 ) ( >= lam5n2 0 ) ( >= lam5n3 0 ) ( >= lam5n4 0 ) ( >= lam5n5 0 ) ( >= lam5n6 0 ) ( > ( + ( * 1 lam5n0 ) ( * 1 lam5n1 ) ( * 1 lam5n2 ) ( * 1 lam5n3 ) ( * 2 lam5n5 ) ( * Nl6CT1 lam5n6 ) ( - 1 ( + ( + Nl6CT1 ( * Nl6arg31 1 ) ) ( * Nl6arg61 0 ) ) ) ) 0 ) ( = ( + ( * ( - 1 ) lam5n0 ) ( * ( - 1 ) lam5n1 ) ( * Nl6arg11 lam5n6 ) ( - ( + 0 Nl6arg11 ) ) ) 0 ) ( = ( + ( * 1 lam5n1 ) ( * ( - 1 ) lam5n4 ) ( * Nl6arg21 lam5n6 ) ( - ( + 0 Nl6arg21 ) ) ) 0 ) ( = ( + ( * 1 lam5n2 ) ( * Nl6arg31 lam5n6 ) ( - ( + 0 ( * Nl6arg31 1 ) ) ) ) 0 ) ( = ( + ( * ( - 1 ) lam5n2 ) ( * ( - 1 ) lam5n3 ) ( * Nl6arg41 lam5n6 ) ( - ( + 0 Nl6arg41 ) ) ) 0 ) ( = ( + ( * Nl6arg51 lam5n6 ) ( - ( + 0 Nl6arg51 ) ) ) 0 ) ( = ( + ( * ( - 1 ) lam5n5 ) ( * Nl6arg61 lam5n6 ) ) 0 ) ( = ( - ( + 0 ( * Nl6arg61 1 ) ) ) 0 ) ) ))
(assert ( and ( >= lam6n0 0 ) ( >= lam6n1 0 ) ( >= lam6n2 0 ) ( >= lam6n3 0 ) ( > ( + ( * 1 lam6n0 ) ( * 1 lam6n1 ) ( * 2 lam6n3 ) ( - 1 ( + ( + ( + ( + ( + ( + Nl6CT1 ( * Nl6arg11 0 ) ) ( * Nl6arg21 ( - 1 ) ) ) ( * Nl6arg31 0 ) ) ( * Nl6arg41 0 ) ) ( * Nl6arg51 0 ) ) ( * Nl6arg61 2 ) ) ) ) 0 ) ( = ( + ( * ( - 1 ) lam6n0 ) ( - ( + ( + 0 ( * Nl6arg11 1 ) ) ( * Nl6arg21 1 ) ) ) ) 0 ) ( = ( + ( * ( - 1 ) lam6n2 ) ( - ( + 0 ( * Nl6arg41 1 ) ) ) ) 0 ) ( = ( * ( - 1 ) lam6n1 ) 0 ) ( = ( + ( * ( - 1 ) lam6n3 ) ( - ( + 0 ( * Nl6arg51 1 ) ) ) ) 0 ) ))
(assert ( or ( and ( >= lam0n0 0 ) ( >= lam0n1 0 ) ( >= lam0n2 0 ) ( >= lam0n3 0 ) ( >= lam0n4 0 ) ( >= lam0n5 0 ) ( >= lam0n6 0 ) ( >= lam0n7 0 ) ( >= lam0n8 0 ) ( >= lam0n9 0 ) ( > ( + ( * 1 lam0n0 ) ( * 1 lam0n1 ) ( * 1 lam0n2 ) ( * 1 lam0n3 ) ( * 1 lam0n4 ) ( * 2 lam0n7 ) ( * 2 lam0n8 ) ( * Nl6CT1 lam0n9 ) ( - 1 ) ) 0 ) ( = ( + ( * ( - 1 ) lam0n0 ) ( * ( - 1 ) lam0n1 ) ( * Nl6arg11 lam0n9 ) ) 0 ) ( = ( + ( * 1 lam0n1 ) ( * ( - 1 ) lam0n7 ) ( * Nl6arg21 lam0n9 ) ) 0 ) ( = ( + ( * 1 lam0n2 ) ( * Nl6arg31 lam0n9 ) ) 0 ) ( = ( + ( * ( - 1 ) lam0n2 ) ( * ( - 1 ) lam0n3 ) ( * Nl6arg41 lam0n9 ) ) 0 ) ( = ( + ( * ( - 1 ) lam0n4 ) ( * ( - 1 ) lam0n5 ) ( * Nl6arg51 lam0n9 ) ) 0 ) ( = ( + ( * 1 lam0n4 ) ( * ( - 1 ) lam0n8 ) ( * Nl6arg61 lam0n9 ) ) 0 ) ( = ( * ( - 1 ) lam0n6 ) 0 ) ) ( and ( >= lam2n0 0 ) ( >= lam2n1 0 ) ( >= lam2n2 0 ) ( >= lam2n3 0 ) ( >= lam2n4 0 ) ( >= lam2n5 0 ) ( >= lam2n6 0 ) ( > ( + ( * 1 lam2n0 ) ( * 1 lam2n1 ) ( * 1 lam2n2 ) ( * 1 lam2n3 ) ( * 2 lam2n5 ) ( * Nl6CT1 lam2n6 ) ( - 1 ) ) 0 ) ( = ( + ( * ( - 1 ) lam2n0 ) ( * ( - 1 ) lam2n1 ) ( * Nl6arg11 lam2n6 ) ) 0 ) ( = ( + ( * 1 lam2n1 ) ( * ( - 1 ) lam2n4 ) ( * Nl6arg21 lam2n6 ) ) 0 ) ( = ( + ( * 1 lam2n2 ) ( * Nl6arg31 lam2n6 ) ) 0 ) ( = ( + ( * ( - 1 ) lam2n2 ) ( * ( - 1 ) lam2n3 ) ( * Nl6arg41 lam2n6 ) ) 0 ) ( = ( * Nl6arg51 lam2n6 ) 0 ) ( = ( + ( * ( - 1 ) lam2n5 ) ( * Nl6arg61 lam2n6 ) ) 0 ) ) ( and ( >= lam4n0 0 ) ( >= lam4n1 0 ) ( >= lam4n2 0 ) ( >= lam4n3 0 ) ( >= lam4n4 0 ) ( >= lam4n5 0 ) ( >= lam4n6 0 ) ( > ( + ( * 1 lam4n0 ) ( * 1 lam4n1 ) ( * 1 lam4n2 ) ( * 1 lam4n3 ) ( * 2 lam4n5 ) ( * Nl6CT1 lam4n6 ) ( - 1 ) ) 0 ) ( = ( + ( * ( - 1 ) lam4n0 ) ( * ( - 1 ) lam4n1 ) ( * Nl6arg11 lam4n6 ) ) 0 ) ( = ( + ( * 1 lam4n1 ) ( * ( - 1 ) lam4n4 ) ( * Nl6arg21 lam4n6 ) ) 0 ) ( = ( + ( * 1 lam4n2 ) ( * Nl6arg31 lam4n6 ) ) 0 ) ( = ( + ( * ( - 1 ) lam4n2 ) ( * ( - 1 ) lam4n3 ) ( * Nl6arg41 lam4n6 ) ) 0 ) ( = ( * Nl6arg51 lam4n6 ) 0 ) ( = ( + ( * ( - 1 ) lam4n5 ) ( * Nl6arg61 lam4n6 ) ) 0 ) ) ))
(check-sat)
(exit)
